Ga4 As4
1.0
   4.0659925992511354    0.0000000000000000    0.0000000000000002
   0.0000000000000007    4.0659929999999997    0.0000000000000002
   0.0000000000000000    0.0000000000000000   35.0628184549659991
Ga As Ga As Ga As Ga As
1 1 1 1 1 1 1 1
direct
   0.0000000000000000    0.0000000000000000    0.3565030009226086 Ga
   0.0000000166771605    0.4999999385144044    0.3975021435161489 As
   0.5000000333543209    0.4999998770288094    0.4385012861096894 Ga
   0.5000000500314814    0.9999998155432137    0.4795004287032298 As
   0.0000000667086417    0.9999997540576189    0.5204995712967703 Ga
   0.0000000833858023    0.4999996925720233    0.5614987138903105 As
   0.5000001000629626    0.4999996310864283    0.6024978564838511 Ga
   0.5000001167401233    0.9999995696008326    0.6434969990773914 As
