Cd1 Te1
1.0
   4.6416095888248439    0.0000000000000000    0.0000000000000003
  -0.0000000023914645    4.6416101500000000    0.0000000000000003
   0.0000000000000000    0.0000000000000000    1.6410565200338141
Cd Te
1 1
direct
   0.0000000000000000    0.0000000000000000    0.0000000000000000 Cd
   0.9999999210354010    0.5000001114759697    0.0000000000000000 Te
